17	4	3
30	25	36	32	11	57	19	
0	0	0	0	0	8	5	10	1	5	7	3	2	3	4
10	2	3	9	6	1	7	4	1	2	6	2	6	8
9	10	4	1	6	9	5	9	1	9	6	3	5	6	7
8	5	9	2	6	3	6	9	5	6	3	2	16	17
6	4	6	3	6	2	3	7	3	6	5	3	11	12	17
25	2	5	8	7	6	3	9	6	4	4	1	9
250	2	10	8	5	2	5	10	6	5	2	3	12	16	17
250	5	3	4	6	2	3	7	10	4	5	2	9	16
250	4	3	2	7	6	6	1	4	10	6	2	10	17
200	9	5	4	3	7	2	8	3	4	4	2	17	17
100	4	4	7	7	7	9	7	6	4	10	2	14	17
250	1	7	7	5	9	6	4	8	1	8	3	13	15	17
4	6	5	2	6	10	2	1	6	2	4	1	17
8	3	2	5	10	1	7	10	1	1	10	2	15	17
9	3	5	7	5	7	7	1	5	9	4	1	17
1	1	5	8	7	8	6	3	4	2	6	1	17
0	0	0	0	0	4	10	2	7	8	2	0
